425
840
403
288
494
486
308
578
459
720
510
705
504
175
731
32
245
39
448
585
105
260
328
589
624
148
156
176
660
50
440
87
828
648
100
210
589
882
646
351
180
578
255
41
480
47
481
338
860
64
200
78
420
874
175
416
672
155
912
666
135
572
594
1020
320
232
423
612
350
430
640
735
76
224
495
68
728
656
330
720
629
520
616
561
400
273
319
552
525
25
672
465
392
152
162
308
136
561
440
330
94
396
390
86
384
250
117
476
720
700
1040
328
527
432
333
243
88
330
600
680
522
322
144
75
420
96
490
608
56
180
170
408
451
60
329
481
468
645
132
550
507
504
920
105
104
798
465
720
760
405
792
68
255
320
290
423
432
350
731
320
441
546
448
855
350
52
328
420
672
370
26
132
462
350
200
580
506
560
175
672
527
343
152
324
855
544
612
615
180
940
180
390
344
128
850
507
504
322
70
260
779
